(declare-datatypes (T1 T2 T3 T4 T5)
 ((Recv (mk-recv (match T1) (ep T2) (var T3) (event T4) (nearestwait T5)))))
(declare-datatypes (T1 T2 T3 T4)
((Send (mk-send (match T1) (ep T2) (value T3) (event T4)))))
(define-fun HB ((a Int) (b Int)) Bool
  (if(< a b)
 true
 false))

(define-fun MATCH ((r (Recv Int Int Int Int Int)) (s (Send Int Int Int Int))) Bool
(if(and (= (ep r) (ep s)) (= (var r) (value s))
(= (event s) (nearestwait r)) (= (match r) (event s))
(= (match s) (event r)))
true
false
)
)

(declare-const T0_0 Int)
(declare-const buffer_0_0 Int)
(declare-const T0_1 Int)
(declare-const buffer_0_1 Int)
(declare-const T0_2 Int)
(declare-const buffer_0_2 Int)
(declare-const T0_3 Int)
(declare-const buffer_0_3 Int)
(declare-const T0_4 Int)
(declare-const buffer_0_4 Int)
(declare-const T0_5 Int)
(declare-const buffer_0_5 Int)
(declare-const T0_6 Int)
(declare-const buffer_0_6 Int)
(declare-const T0_7 Int)
(declare-const buffer_0_7 Int)
(declare-const T0_8 Int)
(declare-const buffer_0_8 Int)
(declare-const T0_9 Int)
(declare-const buffer_0_9 Int)
(declare-const T0_10 Int)
(declare-const buffer_0_10 Int)
(declare-const T0_11 Int)
(declare-const buffer_0_11 Int)
(declare-const T0_12 Int)
(declare-const buffer_0_12 Int)
(declare-const T0_13 Int)
(declare-const buffer_0_13 Int)
(declare-const T0_14 Int)
(declare-const buffer_0_14 Int)
(declare-const T0_15 Int)
(declare-const buffer_0_15 Int)
(declare-const T0_16 Int)
(declare-const buffer_0_16 Int)
(declare-const T0_17 Int)
(declare-const buffer_0_17 Int)
(declare-const T0_18 Int)
(declare-const buffer_0_18 Int)
(declare-const T0_19 Int)
(declare-const buffer_0_19 Int)
(declare-const T0_20 Int)
(declare-const buffer_0_20 Int)
(declare-const T0_21 Int)
(declare-const buffer_0_21 Int)
(declare-const T0_22 Int)
(declare-const buffer_0_22 Int)
(declare-const T0_23 Int)
(declare-const buffer_0_23 Int)
(declare-const T0_24 Int)
(declare-const buffer_0_24 Int)
(declare-const T0_25 Int)
(declare-const buffer_0_25 Int)
(declare-const T0_26 Int)
(declare-const buffer_0_26 Int)
(declare-const T0_27 Int)
(declare-const buffer_0_27 Int)
(declare-const T0_28 Int)
(declare-const buffer_0_28 Int)
(declare-const T0_29 Int)
(declare-const buffer_0_29 Int)
(declare-const T1_0 Int)
(declare-const T1_1 Int)
(declare-const T1_2 Int)
(declare-const T1_3 Int)
(declare-const T1_4 Int)
(declare-const T0_30 Int)
(declare-const T0_31 Int)
(declare-const T0_32 Int)
(declare-const T0_33 Int)
(declare-const T0_34 Int)
(declare-const T1_5 Int)
(declare-const T1_6 Int)
(declare-const T1_7 Int)
(declare-const T0_35 Int)
(declare-const T0_36 Int)
(declare-const T0_37 Int)
(declare-const T1_8 Int)
(declare-const T0_38 Int)
(declare-const T1_9 Int)
(declare-const T0_39 Int)
(declare-const T1_10 Int)
(declare-const T0_40 Int)
(declare-const T1_11 Int)
(declare-const T0_41 Int)
(declare-const T1_12 Int)
(declare-const T0_42 Int)
(declare-const T1_13 Int)
(declare-const T0_43 Int)
(declare-const T1_14 Int)
(declare-const T0_44 Int)
(declare-const T1_15 Int)
(declare-const T0_45 Int)
(declare-const T1_16 Int)
(declare-const T0_46 Int)
(declare-const T1_17 Int)
(declare-const T0_47 Int)
(declare-const T1_18 Int)
(declare-const T0_48 Int)
(declare-const T1_19 Int)
(declare-const T0_49 Int)
(declare-const T1_20 Int)
(declare-const T0_50 Int)
(declare-const T1_21 Int)
(declare-const T0_51 Int)
(declare-const T1_22 Int)
(declare-const T0_52 Int)
(declare-const T1_23 Int)
(declare-const T1_24 Int)
(declare-const T1_25 Int)
(declare-const T1_26 Int)
(declare-const T1_27 Int)
(declare-const T1_28 Int)
(declare-const T1_29 Int)
(declare-const T1_30 Int)
(declare-const T1_31 Int)
(declare-const T1_32 Int)
(declare-const T1_33 Int)
(declare-const T1_34 Int)
(declare-const T1_35 Int)
(declare-const T1_36 Int)
(declare-const T1_37 Int)
(declare-const T1_38 Int)
(declare-const T1_39 Int)
(declare-const T1_40 Int)
(declare-const T1_41 Int)
(declare-const T1_42 Int)
(declare-const T1_43 Int)
(declare-const T1_44 Int)
(declare-const T1_45 Int)
(declare-const T1_46 Int)
(declare-const T1_47 Int)
(declare-const T1_48 Int)
(declare-const T1_49 Int)
(declare-const T1_50 Int)
(declare-const T1_51 Int)
(declare-const T1_52 Int)
(declare-const T1_53 Int)
(declare-const T1_54 Int)
(declare-const T1_55 Int)
(declare-const T1_56 Int)
(declare-const T1_57 Int)
(declare-const T1_58 Int)
(declare-const T1_59 Int)
(declare-const T0_53 Int)
(declare-const T0_54 Int)
(declare-const T0_55 Int)
(declare-const T0_56 Int)
(declare-const T0_57 Int)
(declare-const T0_58 Int)
(declare-const T0_59 Int)

(declare-const recvT0_0 (Recv Int Int Int Int Int))
(assert (and (= (ep recvT0_0) 0) (= (event recvT0_0) T0_0) (= (var recvT0_0) buffer_0_0)))
(declare-const recvT0_1 (Recv Int Int Int Int Int))
(assert (and (= (ep recvT0_1) 0) (= (event recvT0_1) T0_1) (= (var recvT0_1) buffer_0_1)))
(declare-const recvT0_2 (Recv Int Int Int Int Int))
(assert (and (= (ep recvT0_2) 0) (= (event recvT0_2) T0_2) (= (var recvT0_2) buffer_0_2)))
(declare-const recvT0_3 (Recv Int Int Int Int Int))
(assert (and (= (ep recvT0_3) 0) (= (event recvT0_3) T0_3) (= (var recvT0_3) buffer_0_3)))
(declare-const recvT0_4 (Recv Int Int Int Int Int))
(assert (and (= (ep recvT0_4) 0) (= (event recvT0_4) T0_4) (= (var recvT0_4) buffer_0_4)))
(declare-const recvT0_5 (Recv Int Int Int Int Int))
(assert (and (= (ep recvT0_5) 0) (= (event recvT0_5) T0_5) (= (var recvT0_5) buffer_0_5)))
(declare-const recvT0_6 (Recv Int Int Int Int Int))
(assert (and (= (ep recvT0_6) 0) (= (event recvT0_6) T0_6) (= (var recvT0_6) buffer_0_6)))
(declare-const recvT0_7 (Recv Int Int Int Int Int))
(assert (and (= (ep recvT0_7) 0) (= (event recvT0_7) T0_7) (= (var recvT0_7) buffer_0_7)))
(declare-const recvT0_8 (Recv Int Int Int Int Int))
(assert (and (= (ep recvT0_8) 0) (= (event recvT0_8) T0_8) (= (var recvT0_8) buffer_0_8)))
(declare-const recvT0_9 (Recv Int Int Int Int Int))
(assert (and (= (ep recvT0_9) 0) (= (event recvT0_9) T0_9) (= (var recvT0_9) buffer_0_9)))
(declare-const recvT0_10 (Recv Int Int Int Int Int))
(assert (and (= (ep recvT0_10) 0) (= (event recvT0_10) T0_10) (= (var recvT0_10) buffer_0_10)))
(declare-const recvT0_11 (Recv Int Int Int Int Int))
(assert (and (= (ep recvT0_11) 0) (= (event recvT0_11) T0_11) (= (var recvT0_11) buffer_0_11)))
(declare-const recvT0_12 (Recv Int Int Int Int Int))
(assert (and (= (ep recvT0_12) 0) (= (event recvT0_12) T0_12) (= (var recvT0_12) buffer_0_12)))
(declare-const recvT0_13 (Recv Int Int Int Int Int))
(assert (and (= (ep recvT0_13) 0) (= (event recvT0_13) T0_13) (= (var recvT0_13) buffer_0_13)))
(declare-const recvT0_14 (Recv Int Int Int Int Int))
(assert (and (= (ep recvT0_14) 0) (= (event recvT0_14) T0_14) (= (var recvT0_14) buffer_0_14)))
(declare-const recvT0_15 (Recv Int Int Int Int Int))
(assert (and (= (ep recvT0_15) 0) (= (event recvT0_15) T0_15) (= (var recvT0_15) buffer_0_15)))
(declare-const recvT0_16 (Recv Int Int Int Int Int))
(assert (and (= (ep recvT0_16) 0) (= (event recvT0_16) T0_16) (= (var recvT0_16) buffer_0_16)))
(declare-const recvT0_17 (Recv Int Int Int Int Int))
(assert (and (= (ep recvT0_17) 0) (= (event recvT0_17) T0_17) (= (var recvT0_17) buffer_0_17)))
(declare-const recvT0_18 (Recv Int Int Int Int Int))
(assert (and (= (ep recvT0_18) 0) (= (event recvT0_18) T0_18) (= (var recvT0_18) buffer_0_18)))
(declare-const recvT0_19 (Recv Int Int Int Int Int))
(assert (and (= (ep recvT0_19) 0) (= (event recvT0_19) T0_19) (= (var recvT0_19) buffer_0_19)))
(declare-const recvT0_20 (Recv Int Int Int Int Int))
(assert (and (= (ep recvT0_20) 0) (= (event recvT0_20) T0_20) (= (var recvT0_20) buffer_0_20)))
(declare-const recvT0_21 (Recv Int Int Int Int Int))
(assert (and (= (ep recvT0_21) 0) (= (event recvT0_21) T0_21) (= (var recvT0_21) buffer_0_21)))
(declare-const recvT0_22 (Recv Int Int Int Int Int))
(assert (and (= (ep recvT0_22) 0) (= (event recvT0_22) T0_22) (= (var recvT0_22) buffer_0_22)))
(declare-const recvT0_23 (Recv Int Int Int Int Int))
(assert (and (= (ep recvT0_23) 0) (= (event recvT0_23) T0_23) (= (var recvT0_23) buffer_0_23)))
(declare-const recvT0_24 (Recv Int Int Int Int Int))
(assert (and (= (ep recvT0_24) 0) (= (event recvT0_24) T0_24) (= (var recvT0_24) buffer_0_24)))
(declare-const recvT0_25 (Recv Int Int Int Int Int))
(assert (and (= (ep recvT0_25) 0) (= (event recvT0_25) T0_25) (= (var recvT0_25) buffer_0_25)))
(declare-const recvT0_26 (Recv Int Int Int Int Int))
(assert (and (= (ep recvT0_26) 0) (= (event recvT0_26) T0_26) (= (var recvT0_26) buffer_0_26)))
(declare-const recvT0_27 (Recv Int Int Int Int Int))
(assert (and (= (ep recvT0_27) 0) (= (event recvT0_27) T0_27) (= (var recvT0_27) buffer_0_27)))
(declare-const recvT0_28 (Recv Int Int Int Int Int))
(assert (and (= (ep recvT0_28) 0) (= (event recvT0_28) T0_28) (= (var recvT0_28) buffer_0_28)))
(declare-const recvT0_29 (Recv Int Int Int Int Int))
(assert (and (= (ep recvT0_29) 0) (= (event recvT0_29) T0_29) (= (var recvT0_29) buffer_0_29)))
(declare-const sendT1_0 (Send Int Int Int Int))
(assert (and (= (ep sendT1_0) 0) (= (event sendT1_0) T1_0) (= (value sendT1_0) 0)))
(declare-const sendT1_1 (Send Int Int Int Int))
(assert (and (= (ep sendT1_1) 0) (= (event sendT1_1) T1_1) (= (value sendT1_1) 1)))
(declare-const sendT1_2 (Send Int Int Int Int))
(assert (and (= (ep sendT1_2) 0) (= (event sendT1_2) T1_2) (= (value sendT1_2) 2)))
(declare-const sendT1_3 (Send Int Int Int Int))
(assert (and (= (ep sendT1_3) 0) (= (event sendT1_3) T1_3) (= (value sendT1_3) 3)))
(declare-const sendT1_4 (Send Int Int Int Int))
(assert (and (= (ep sendT1_4) 0) (= (event sendT1_4) T1_4) (= (value sendT1_4) 4)))
(assert (= (nearestwait recvT0_0) T0_30))
(assert (= (nearestwait recvT0_1) T0_31))
(assert (= (nearestwait recvT0_2) T0_32))
(assert (= (nearestwait recvT0_3) T0_33))
(assert (= (nearestwait recvT0_4) T0_34))
(declare-const sendT1_5 (Send Int Int Int Int))
(assert (and (= (ep sendT1_5) 0) (= (event sendT1_5) T1_5) (= (value sendT1_5) 5)))
(declare-const sendT1_6 (Send Int Int Int Int))
(assert (and (= (ep sendT1_6) 0) (= (event sendT1_6) T1_6) (= (value sendT1_6) 6)))
(declare-const sendT1_7 (Send Int Int Int Int))
(assert (and (= (ep sendT1_7) 0) (= (event sendT1_7) T1_7) (= (value sendT1_7) 7)))
(assert (= (nearestwait recvT0_5) T0_35))
(assert (= (nearestwait recvT0_6) T0_36))
(assert (= (nearestwait recvT0_7) T0_37))
(declare-const sendT1_8 (Send Int Int Int Int))
(assert (and (= (ep sendT1_8) 0) (= (event sendT1_8) T1_8) (= (value sendT1_8) 8)))
(assert (= (nearestwait recvT0_8) T0_38))
(declare-const sendT1_9 (Send Int Int Int Int))
(assert (and (= (ep sendT1_9) 0) (= (event sendT1_9) T1_9) (= (value sendT1_9) 9)))
(assert (= (nearestwait recvT0_9) T0_39))
(declare-const sendT1_10 (Send Int Int Int Int))
(assert (and (= (ep sendT1_10) 0) (= (event sendT1_10) T1_10) (= (value sendT1_10) 10)))
(assert (= (nearestwait recvT0_10) T0_40))
(declare-const sendT1_11 (Send Int Int Int Int))
(assert (and (= (ep sendT1_11) 0) (= (event sendT1_11) T1_11) (= (value sendT1_11) 11)))
(assert (= (nearestwait recvT0_11) T0_41))
(declare-const sendT1_12 (Send Int Int Int Int))
(assert (and (= (ep sendT1_12) 0) (= (event sendT1_12) T1_12) (= (value sendT1_12) 12)))
(assert (= (nearestwait recvT0_12) T0_42))
(declare-const sendT1_13 (Send Int Int Int Int))
(assert (and (= (ep sendT1_13) 0) (= (event sendT1_13) T1_13) (= (value sendT1_13) 13)))
(assert (= (nearestwait recvT0_13) T0_43))
(declare-const sendT1_14 (Send Int Int Int Int))
(assert (and (= (ep sendT1_14) 0) (= (event sendT1_14) T1_14) (= (value sendT1_14) 14)))
(assert (= (nearestwait recvT0_14) T0_44))
(declare-const sendT1_15 (Send Int Int Int Int))
(assert (and (= (ep sendT1_15) 0) (= (event sendT1_15) T1_15) (= (value sendT1_15) 15)))
(assert (= (nearestwait recvT0_15) T0_45))
(declare-const sendT1_16 (Send Int Int Int Int))
(assert (and (= (ep sendT1_16) 0) (= (event sendT1_16) T1_16) (= (value sendT1_16) 16)))
(assert (= (nearestwait recvT0_16) T0_46))
(declare-const sendT1_17 (Send Int Int Int Int))
(assert (and (= (ep sendT1_17) 0) (= (event sendT1_17) T1_17) (= (value sendT1_17) 17)))
(assert (= (nearestwait recvT0_17) T0_47))
(declare-const sendT1_18 (Send Int Int Int Int))
(assert (and (= (ep sendT1_18) 0) (= (event sendT1_18) T1_18) (= (value sendT1_18) 18)))
(assert (= (nearestwait recvT0_18) T0_48))
(declare-const sendT1_19 (Send Int Int Int Int))
(assert (and (= (ep sendT1_19) 0) (= (event sendT1_19) T1_19) (= (value sendT1_19) 19)))
(assert (= (nearestwait recvT0_19) T0_49))
(declare-const sendT1_20 (Send Int Int Int Int))
(assert (and (= (ep sendT1_20) 0) (= (event sendT1_20) T1_20) (= (value sendT1_20) 20)))
(assert (= (nearestwait recvT0_20) T0_50))
(declare-const sendT1_21 (Send Int Int Int Int))
(assert (and (= (ep sendT1_21) 0) (= (event sendT1_21) T1_21) (= (value sendT1_21) 21)))
(assert (= (nearestwait recvT0_21) T0_51))
(declare-const sendT1_22 (Send Int Int Int Int))
(assert (and (= (ep sendT1_22) 0) (= (event sendT1_22) T1_22) (= (value sendT1_22) 22)))
(assert (= (nearestwait recvT0_22) T0_52))
(declare-const sendT1_23 (Send Int Int Int Int))
(assert (and (= (ep sendT1_23) 0) (= (event sendT1_23) T1_23) (= (value sendT1_23) 23)))
(declare-const sendT1_24 (Send Int Int Int Int))
(assert (and (= (ep sendT1_24) 0) (= (event sendT1_24) T1_24) (= (value sendT1_24) 24)))
(declare-const sendT1_25 (Send Int Int Int Int))
(assert (and (= (ep sendT1_25) 0) (= (event sendT1_25) T1_25) (= (value sendT1_25) 25)))
(declare-const sendT1_26 (Send Int Int Int Int))
(assert (and (= (ep sendT1_26) 0) (= (event sendT1_26) T1_26) (= (value sendT1_26) 26)))
(declare-const sendT1_27 (Send Int Int Int Int))
(assert (and (= (ep sendT1_27) 0) (= (event sendT1_27) T1_27) (= (value sendT1_27) 27)))
(declare-const sendT1_28 (Send Int Int Int Int))
(assert (and (= (ep sendT1_28) 0) (= (event sendT1_28) T1_28) (= (value sendT1_28) 28)))
(declare-const sendT1_29 (Send Int Int Int Int))
(assert (and (= (ep sendT1_29) 0) (= (event sendT1_29) T1_29) (= (value sendT1_29) 29)))
(assert (= (nearestwait recvT0_23) T0_53))
(assert (= (nearestwait recvT0_24) T0_54))
(assert (= (nearestwait recvT0_25) T0_55))
(assert (= (nearestwait recvT0_26) T0_56))
(assert (= (nearestwait recvT0_27) T0_57))
(assert (= (nearestwait recvT0_28) T0_58))
(assert (= (nearestwait recvT0_29) T0_59))

(assert (and
(HB T0_0 T0_1) (HB T0_1 T0_2) (HB T0_2 T0_3) (HB T0_3 T0_4) (HB T0_4 T0_5) (HB T0_5 T0_6) (HB T0_6 T0_7) (HB T0_7 T0_8) (HB T0_8 T0_9) (HB T0_9 T0_10) (HB T0_10 T0_11) (HB T0_11 T0_12) (HB T0_12 T0_13) (HB T0_13 T0_14) (HB T0_14 T0_15) (HB T0_15 T0_16) (HB T0_16 T0_17) (HB T0_17 T0_18) (HB T0_18 T0_19) (HB T0_19 T0_20) (HB T0_20 T0_21) (HB T0_21 T0_22) (HB T0_22 T0_23) (HB T0_23 T0_24) (HB T0_24 T0_25) (HB T0_25 T0_26) (HB T0_26 T0_27) (HB T0_27 T0_28) (HB T0_28 T0_29) (HB T1_0 T1_1) (HB T1_1 T1_2) (HB T1_2 T1_3) (HB T1_3 T1_4) (HB T0_0 T0_30) (HB T0_1 T0_31) (HB T0_2 T0_32) (HB T0_3 T0_33) (HB T0_4 T0_34) (HB T1_4 T1_5) (HB T1_5 T1_6) (HB T1_6 T1_7) (HB T0_5 T0_35) (HB T0_6 T0_36) (HB T0_7 T0_37) (HB T1_7 T1_8) (HB T0_8 T0_38) (HB T1_8 T1_9) (HB T0_9 T0_39) (HB T1_9 T1_10) (HB T0_10 T0_40) (HB T1_10 T1_11) (HB T0_11 T0_41) (HB T1_11 T1_12) (HB T0_12 T0_42) (HB T1_12 T1_13) (HB T0_13 T0_43) (HB T1_13 T1_14) (HB T0_14 T0_44) (HB T1_14 T1_15) (HB T0_15 T0_45) (HB T1_15 T1_16) (HB T0_16 T0_46) (HB T1_16 T1_17) (HB T0_17 T0_47) (HB T1_17 T1_18) (HB T0_18 T0_48) (HB T1_18 T1_19) (HB T0_19 T0_49) (HB T1_19 T1_20) (HB T0_20 T0_50) (HB T1_20 T1_21) (HB T0_21 T0_51) (HB T1_21 T1_22) (HB T0_22 T0_52) (HB T1_22 T1_23) (HB T1_23 T1_24) (HB T1_24 T1_25) (HB T1_25 T1_26) (HB T1_26 T1_27) (HB T1_27 T1_28) (HB T1_28 T1_29) (HB T0_23 T0_53) (HB T0_24 T0_54) (HB T0_25 T0_55) (HB T0_26 T0_56) (HB T0_27 T0_57) (HB T0_28 T0_58) (HB T0_29 T0_59) ))


(assert (and
(or (MATCH recvT0_19 sendT1_19) )
(or (MATCH recvT0_18 sendT1_18) )
(or (MATCH recvT0_17 sendT1_17) )
(or (MATCH recvT0_16 sendT1_16) )
(or (MATCH recvT0_15 sendT1_15) )
(or (MATCH recvT0_14 sendT1_14) )
(or (MATCH recvT0_13 sendT1_13) )
(or (MATCH recvT0_9 sendT1_9) )
(or (MATCH recvT0_12 sendT1_12) )
(or (MATCH recvT0_8 sendT1_8) )
(or (MATCH recvT0_11 sendT1_11) )
(or (MATCH recvT0_7 sendT1_7) )
(or (MATCH recvT0_10 sendT1_10) )
(or (MATCH recvT0_6 sendT1_6) )
(or (MATCH recvT0_5 sendT1_5) )
(or (MATCH recvT0_4 sendT1_4) )
(or (MATCH recvT0_3 sendT1_3) )
(or (MATCH recvT0_2 sendT1_2) )
(or (MATCH recvT0_1 sendT1_1) )
(or (MATCH recvT0_0 sendT1_0) )
(or (MATCH recvT0_29 sendT1_29) )
(or (MATCH recvT0_28 sendT1_28) )
(or (MATCH recvT0_27 sendT1_27) )
(or (MATCH recvT0_26 sendT1_26) )
(or (MATCH recvT0_25 sendT1_25) )
(or (MATCH recvT0_24 sendT1_24) )
(or (MATCH recvT0_23 sendT1_23) )
(or (MATCH recvT0_22 sendT1_22) )
(or (MATCH recvT0_21 sendT1_21) )
(or (MATCH recvT0_20 sendT1_20) )
))


(check-sat)
